20
0
21
23
20
18
0
20
21
0
0
23
16
28
25
0
36
16
13
15
26
47
17
35
0
0
33
0
17
35
9
0
15
94
12
14
31
35
19
12
14
26
0
20
34
36
23
0
0
0
21
36
23
29
22
25
15
14
23
13
19
16
0
15
40
0
0
0
31
23
14
41
11
0
0
0
16
73
0
0
25
22
0
0
28
0
20
47
0
0
0
49
0
18
24
36
27
15
16
0
